set J:=x1,x2,x3; #colonne
set I:= r1,r2,r3; #righe

param C :=
	x1	-1
	x2	-3
	x3	1;

param	A:	x1	x2	x3:=
	 	r1	2	1	0
	 	r2	1	1	3
	 	r3	2	1	3;
	 	
param B:=
	r1	3
	r2	6
	r3	8;
	 	
	 	